c Sudoku solution
p cnf 729 0
112 0
141 0
157 0
237 0
258 0
294 0
316 0
524 0
536 0
573 0
589 0
597 0
623 0
644 0
667 0
691 0
743 0
826 0
831 0
847 0
868 0
882 0
899 0
813 0
952 0
971 0
996 0
983 0
263 0
453 0
548 0
562 0
914 0
927 0
938 0
735 0
722 0
719 0
798 0
875 0
854 0
417 0
618 0
515 0
421 0
551 0
211 0
381 0
377 0
756 0
761 0
774 0
787 0
484 0
188 0
328 0
478 0
359 0
655 0
495 0
672 0
686 0
432 0
639 0
392 0
193 0
285 0
134 0
333 0
364 0
242 0
345 0
166 0
125 0
229 0
179 0
276 0
949 0
965 0
446 0
469 0
